100 4950
1 2 2
1 3 4
1 4 5
1 5 3
1 6 5
1 7 3
1 8 5
1 9 5
1 10 4
1 11 5
1 12 2
1 13 3
1 14 2
1 15 4
1 16 2
1 17 5
1 18 3
1 19 5
1 20 1
1 21 4
1 22 2
1 23 1
1 24 3
1 25 3
1 26 1
1 27 3
1 28 5
1 29 3
1 30 3
1 31 3
1 32 5
1 33 4
1 34 4
1 35 3
1 36 1
1 37 3
1 38 1
1 39 2
1 40 2
1 41 1
1 42 2
1 43 5
1 44 2
1 45 3
1 46 5
1 47 4
1 48 3
1 49 2
1 50 2
1 51 4
1 52 5
1 53 4
1 54 4
1 55 5
1 56 5
1 57 3
1 58 1
1 59 1
1 60 2
1 61 4
1 62 5
1 63 3
1 64 1
1 65 3
1 66 1
1 67 1
1 68 5
1 69 1
1 70 2
1 71 3
1 72 1
1 73 4
1 74 3
1 75 3
1 76 3
1 77 1
1 78 2
1 79 3
1 80 4
1 81 4
1 82 1
1 83 1
1 84 2
1 85 4
1 86 1
1 87 5
1 88 3
1 89 1
1 90 1
1 91 4
1 92 2
1 93 3
1 94 3
1 95 2
1 96 2
1 97 1
1 98 2
1 99 1
1 100 3
2 3 3
2 4 1
2 5 2
2 6 4
2 7 1
2 8 1
2 9 5
2 10 1
2 11 4
2 12 2
2 13 4
2 14 3
2 15 1
2 16 4
2 17 2
2 18 4
2 19 3
2 20 5
2 21 3
2 22 1
2 23 4
2 24 2
2 25 3
2 26 1
2 27 4
2 28 3
2 29 1
2 30 3
2 31 2
2 32 2
2 33 2
2 34 1
2 35 3
2 36 1
2 37 2
2 38 5
2 39 3
2 40 5
2 41 4
2 42 3
2 43 1
2 44 4
2 45 1
2 46 1
2 47 3
2 48 2
2 49 1
2 50 4
2 51 3
2 52 1
2 53 2
2 54 3
2 55 3
2 56 2
2 57 3
2 58 4
2 59 1
2 60 1
2 61 5
2 62 4
2 63 3
2 64 2
2 65 3
2 66 2
2 67 4
2 68 5
2 69 3
2 70 1
2 71 4
2 72 5
2 73 1
2 74 2
2 75 3
2 76 2
2 77 5
2 78 1
2 79 2
2 80 5
2 81 4
2 82 2
2 83 4
2 84 1
2 85 5
2 86 4
2 87 2
2 88 2
2 89 1
2 90 4
2 91 3
2 92 5
2 93 3
2 94 5
2 95 5
2 96 3
2 97 4
2 98 4
2 99 4
2 100 5
3 4 1
3 5 4
3 6 4
3 7 1
3 8 1
3 9 5
3 10 4
3 11 3
3 12 5
3 13 1
3 14 1
3 15 5
3 16 5
3 17 2
3 18 2
3 19 3
3 20 1
3 21 4
3 22 4
3 23 2
3 24 5
3 25 5
3 26 1
3 27 4
3 28 5
3 29 2
3 30 2
3 31 4
3 32 2
3 33 5
3 34 2
3 35 5
3 36 1
3 37 1
3 38 3
3 39 4
3 40 2
3 41 3
3 42 2
3 43 1
3 44 2
3 45 4
3 46 2
3 47 1
3 48 5
3 49 3
3 50 3
3 51 4
3 52 2
3 53 2
3 54 5
3 55 4
3 56 1
3 57 4
3 58 1
3 59 1
3 60 2
3 61 1
3 62 4
3 63 3
3 64 4
3 65 1
3 66 1
3 67 3
3 68 2
3 69 3
3 70 4
3 71 3
3 72 4
3 73 1
3 74 4
3 75 3
3 76 1
3 77 2
3 78 3
3 79 4
3 80 3
3 81 2
3 82 2
3 83 2
3 84 1
3 85 1
3 86 3
3 87 1
3 88 1
3 89 3
3 90 2
3 91 4
3 92 3
3 93 1
3 94 5
3 95 3
3 96 1
3 97 5
3 98 1
3 99 1
3 100 2
4 5 2
4 6 4
4 7 2
4 8 2
4 9 3
4 10 5
4 11 1
4 12 5
4 13 5
4 14 3
4 15 4
4 16 2
4 17 3
4 18 1
4 19 3
4 20 4
4 21 3
4 22 1
4 23 4
4 24 1
4 25 5
4 26 3
4 27 3
4 28 2
4 29 1
4 30 3
4 31 1
4 32 5
4 33 5
4 34 3
4 35 1
4 36 2
4 37 5
4 38 4
4 39 4
4 40 3
4 41 3
4 42 1
4 43 2
4 44 3
4 45 2
4 46 3
4 47 3
4 48 4
4 49 2
4 50 2
4 51 3
4 52 4
4 53 3
4 54 2
4 55 5
4 56 1
4 57 5
4 58 5
4 59 4
4 60 2
4 61 2
4 62 3
4 63 5
4 64 3
4 65 2
4 66 5
4 67 3
4 68 1
4 69 1
4 70 2
4 71 2
4 72 1
4 73 2
4 74 4
4 75 5
4 76 5
4 77 3
4 78 2
4 79 4
4 80 5
4 81 2
4 82 4
4 83 3
4 84 4
4 85 4
4 86 3
4 87 5
4 88 5
4 89 5
4 90 1
4 91 5
4 92 4
4 93 2
4 94 5
4 95 3
4 96 3
4 97 3
4 98 4
4 99 2
4 100 2
5 6 1
5 7 4
5 8 4
5 9 4
5 10 5
5 11 2
5 12 1
5 13 4
5 14 3
5 15 3
5 16 1
5 17 1
5 18 3
5 19 1
5 20 5
5 21 5
5 22 5
5 23 4
5 24 4
5 25 5
5 26 1
5 27 3
5 28 3
5 29 5
5 30 2
5 31 2
5 32 5
5 33 1
5 34 4
5 35 2
5 36 2
5 37 4
5 38 4
5 39 1
5 40 4
5 41 2
5 42 5
5 43 2
5 44 3
5 45 5
5 46 2
5 47 5
5 48 2
5 49 3
5 50 5
5 51 2
5 52 5
5 53 4
5 54 1
5 55 3
5 56 3
5 57 4
5 58 1
5 59 4
5 60 2
5 61 4
5 62 2
5 63 1
5 64 5
5 65 1
5 66 4
5 67 3
5 68 2
5 69 4
5 70 4
5 71 5
5 72 3
5 73 4
5 74 4
5 75 2
5 76 4
5 77 5
5 78 4
5 79 4
5 80 3
5 81 2
5 82 2
5 83 2
5 84 3
5 85 3
5 86 2
5 87 5
5 88 3
5 89 5
5 90 1
5 91 4
5 92 3
5 93 4
5 94 1
5 95 5
5 96 1
5 97 4
5 98 4
5 99 3
5 100 4
6 7 4
6 8 5
6 9 4
6 10 3
6 11 5
6 12 3
6 13 1
6 14 5
6 15 2
6 16 1
6 17 3
6 18 1
6 19 1
6 20 3
6 21 1
6 22 2
6 23 1
6 24 2
6 25 5
6 26 1
6 27 3
6 28 4
6 29 5
6 30 2
6 31 2
6 32 4
6 33 2
6 34 3
6 35 1
6 36 2
6 37 3
6 38 3
6 39 1
6 40 3
6 41 5
6 42 2
6 43 4
6 44 3
6 45 2
6 46 1
6 47 3
6 48 3
6 49 4
6 50 2
6 51 3
6 52 3
6 53 2
6 54 2
6 55 2
6 56 1
6 57 5
6 58 3
6 59 3
6 60 3
6 61 4
6 62 1
6 63 5
6 64 4
6 65 1
6 66 5
6 67 3
6 68 5
6 69 3
6 70 4
6 71 5
6 72 1
6 73 2
6 74 1
6 75 3
6 76 5
6 77 3
6 78 2
6 79 1
6 80 5
6 81 4
6 82 3
6 83 3
6 84 1
6 85 2
6 86 2
6 87 3
6 88 5
6 89 2
6 90 4
6 91 2
6 92 3
6 93 1
6 94 4
6 95 4
6 96 1
6 97 3
6 98 1
6 99 1
6 100 1
7 8 1
7 9 2
7 10 5
7 11 5
7 12 4
7 13 3
7 14 3
7 15 5
7 16 3
7 17 1
7 18 5
7 19 3
7 20 3
7 21 2
7 22 4
7 23 1
7 24 2
7 25 3
7 26 5
7 27 1
7 28 4
7 29 3
7 30 2
7 31 4
7 32 5
7 33 5
7 34 3
7 35 1
7 36 3
7 37 2
7 38 4
7 39 5
7 40 3
7 41 3
7 42 4
7 43 5
7 44 5
7 45 1
7 46 5
7 47 4
7 48 1
7 49 2
7 50 5
7 51 2
7 52 2
7 53 3
7 54 4
7 55 5
7 56 1
7 57 2
7 58 3
7 59 4
7 60 3
7 61 4
7 62 1
7 63 2
7 64 3
7 65 4
7 66 3
7 67 3
7 68 5
7 69 5
7 70 5
7 71 2
7 72 4
7 73 1
7 74 2
7 75 2
7 76 4
7 77 2
7 78 5
7 79 4
7 80 2
7 81 1
7 82 4
7 83 4
7 84 3
7 85 5
7 86 4
7 87 4
7 88 3
7 89 5
7 90 3
7 91 4
7 92 5
7 93 3
7 94 3
7 95 3
7 96 1
7 97 1
7 98 1
7 99 2
7 100 3
8 9 3
8 10 4
8 11 2
8 12 4
8 13 3
8 14 5
8 15 5
8 16 4
8 17 2
8 18 3
8 19 4
8 20 2
8 21 2
8 22 3
8 23 5
8 24 2
8 25 4
8 26 4
8 27 5
8 28 4
8 29 5
8 30 4
8 31 2
8 32 4
8 33 3
8 34 2
8 35 4
8 36 5
8 37 1
8 38 3
8 39 1
8 40 3
8 41 4
8 42 4
8 43 4
8 44 1
8 45 5
8 46 2
8 47 5
8 48 4
8 49 2
8 50 5
8 51 4
8 52 3
8 53 2
8 54 5
8 55 3
8 56 2
8 57 4
8 58 4
8 59 5
8 60 5
8 61 2
8 62 1
8 63 1
8 64 4
8 65 2
8 66 3
8 67 2
8 68 1
8 69 2
8 70 5
8 71 4
8 72 4
8 73 1
8 74 3
8 75 1
8 76 4
8 77 3
8 78 4
8 79 1
8 80 2
8 81 2
8 82 4
8 83 5
8 84 2
8 85 3
8 86 2
8 87 5
8 88 3
8 89 1
8 90 3
8 91 5
8 92 2
8 93 3
8 94 2
8 95 5
8 96 1
8 97 5
8 98 2
8 99 1
8 100 3
9 10 2
9 11 2
9 12 4
9 13 1
9 14 5
9 15 2
9 16 3
9 17 4
9 18 5
9 19 4
9 20 4
9 21 5
9 22 3
9 23 1
9 24 2
9 25 2
9 26 1
9 27 3
9 28 3
9 29 3
9 30 4
9 31 1
9 32 4
9 33 2
9 34 2
9 35 4
9 36 2
9 37 3
9 38 1
9 39 5
9 40 5
9 41 4
9 42 5
9 43 5
9 44 2
9 45 3
9 46 1
9 47 4
9 48 5
9 49 5
9 50 1
9 51 3
9 52 2
9 53 1
9 54 1
9 55 1
9 56 4
9 57 5
9 58 4
9 59 4
9 60 2
9 61 3
9 62 4
9 63 5
9 64 4
9 65 4
9 66 1
9 67 3
9 68 4
9 69 4
9 70 5
9 71 1
9 72 3
9 73 4
9 74 5
9 75 4
9 76 4
9 77 2
9 78 2
9 79 5
9 80 4
9 81 2
9 82 3
9 83 2
9 84 5
9 85 4
9 86 4
9 87 4
9 88 5
9 89 1
9 90 1
9 91 4
9 92 3
9 93 3
9 94 1
9 95 4
9 96 3
9 97 4
9 98 2
9 99 5
9 100 1
10 11 3
10 12 3
10 13 1
10 14 2
10 15 3
10 16 1
10 17 4
10 18 5
10 19 1
10 20 2
10 21 4
10 22 3
10 23 2
10 24 2
10 25 2
10 26 2
10 27 3
10 28 5
10 29 2
10 30 5
10 31 3
10 32 4
10 33 2
10 34 5
10 35 2
10 36 2
10 37 3
10 38 1
10 39 3
10 40 2
10 41 3
10 42 3
10 43 4
10 44 5
10 45 2
10 46 3
10 47 2
10 48 1
10 49 2
10 50 4
10 51 3
10 52 4
10 53 2
10 54 5
10 55 3
10 56 5
10 57 2
10 58 2
10 59 2
10 60 3
10 61 4
10 62 5
10 63 5
10 64 2
10 65 4
10 66 1
10 67 1
10 68 4
10 69 3
10 70 1
10 71 5
10 72 2
10 73 4
10 74 2
10 75 3
10 76 1
10 77 4
10 78 1
10 79 5
10 80 3
10 81 1
10 82 3
10 83 3
10 84 3
10 85 1
10 86 1
10 87 3
10 88 2
10 89 1
10 90 4
10 91 5
10 92 1
10 93 3
10 94 3
10 95 1
10 96 2
10 97 4
10 98 1
10 99 2
10 100 1
11 12 5
11 13 1
11 14 3
11 15 3
11 16 2
11 17 4
11 18 5
11 19 5
11 20 5
11 21 1
11 22 3
11 23 2
11 24 1
11 25 5
11 26 4
11 27 5
11 28 5
11 29 1
11 30 2
11 31 4
11 32 1
11 33 2
11 34 2
11 35 2
11 36 1
11 37 4
11 38 5
11 39 1
11 40 1
11 41 2
11 42 4
11 43 1
11 44 4
11 45 3
11 46 4
11 47 1
11 48 1
11 49 1
11 50 5
11 51 5
11 52 3
11 53 4
11 54 5
11 55 5
11 56 2
11 57 4
11 58 1
11 59 1
11 60 2
11 61 1
11 62 1
11 63 4
11 64 3
11 65 4
11 66 2
11 67 4
11 68 2
11 69 4
11 70 2
11 71 3
11 72 1
11 73 5
11 74 2
11 75 2
11 76 3
11 77 1
11 78 2
11 79 1
11 80 3
11 81 4
11 82 1
11 83 4
11 84 2
11 85 1
11 86 1
11 87 4
11 88 5
11 89 2
11 90 2
11 91 5
11 92 4
11 93 2
11 94 4
11 95 2
11 96 4
11 97 1
11 98 2
11 99 1
11 100 3
12 13 2
12 14 4
12 15 4
12 16 4
12 17 3
12 18 3
12 19 2
12 20 1
12 21 2
12 22 5
12 23 2
12 24 3
12 25 5
12 26 5
12 27 4
12 28 5
12 29 5
12 30 5
12 31 3
12 32 1
12 33 4
12 34 2
12 35 4
12 36 1
12 37 5
12 38 5
12 39 5
12 40 3
12 41 4
12 42 4
12 43 3
12 44 4
12 45 3
12 46 4
12 47 3
12 48 3
12 49 2
12 50 2
12 51 1
12 52 2
12 53 3
12 54 1
12 55 1
12 56 1
12 57 1
12 58 3
12 59 1
12 60 1
12 61 5
12 62 5
12 63 4
12 64 3
12 65 2
12 66 2
12 67 3
12 68 1
12 69 4
12 70 5
12 71 4
12 72 4
12 73 5
12 74 2
12 75 3
12 76 2
12 77 5
12 78 1
12 79 5
12 80 2
12 81 4
12 82 5
12 83 1
12 84 4
12 85 1
12 86 4
12 87 5
12 88 5
12 89 1
12 90 1
12 91 5
12 92 3
12 93 4
12 94 4
12 95 3
12 96 3
12 97 5
12 98 2
12 99 1
12 100 5
13 14 4
13 15 3
13 16 5
13 17 4
13 18 5
13 19 2
13 20 3
13 21 1
13 22 2
13 23 2
13 24 1
13 25 3
13 26 2
13 27 2
13 28 4
13 29 1
13 30 5
13 31 2
13 32 5
13 33 2
13 34 2
13 35 2
13 36 5
13 37 2
13 38 4
13 39 2
13 40 3
13 41 4
13 42 2
13 43 5
13 44 4
13 45 4
13 46 4
13 47 2
13 48 5
13 49 4
13 50 3
13 51 2
13 52 1
13 53 2
13 54 2
13 55 5
13 56 1
13 57 2
13 58 3
13 59 3
13 60 1
13 61 4
13 62 2
13 63 5
13 64 5
13 65 4
13 66 5
13 67 2
13 68 4
13 69 3
13 70 1
13 71 4
13 72 5
13 73 5
13 74 3
13 75 4
13 76 5
13 77 4
13 78 2
13 79 4
13 80 2
13 81 2
13 82 4
13 83 1
13 84 3
13 85 3
13 86 4
13 87 2
13 88 3
13 89 1
13 90 1
13 91 1
13 92 2
13 93 2
13 94 1
13 95 3
13 96 4
13 97 4
13 98 4
13 99 5
13 100 2
14 15 3
14 16 4
14 17 5
14 18 4
14 19 1
14 20 4
14 21 5
14 22 5
14 23 3
14 24 2
14 25 1
14 26 3
14 27 5
14 28 3
14 29 5
14 30 5
14 31 3
14 32 2
14 33 5
14 34 4
14 35 4
14 36 2
14 37 5
14 38 5
14 39 4
14 40 3
14 41 2
14 42 2
14 43 3
14 44 2
14 45 5
14 46 4
14 47 1
14 48 1
14 49 1
14 50 5
14 51 3
14 52 1
14 53 3
14 54 1
14 55 1
14 56 5
14 57 4
14 58 4
14 59 1
14 60 4
14 61 4
14 62 1
14 63 1
14 64 2
14 65 3
14 66 4
14 67 2
14 68 4
14 69 2
14 70 1
14 71 3
14 72 3
14 73 5
14 74 5
14 75 3
14 76 5
14 77 4
14 78 4
14 79 4
14 80 4
14 81 5
14 82 1
14 83 4
14 84 1
14 85 5
14 86 5
14 87 3
14 88 1
14 89 2
14 90 2
14 91 1
14 92 1
14 93 1
14 94 5
14 95 2
14 96 1
14 97 5
14 98 3
14 99 5
14 100 1
15 16 3
15 17 3
15 18 5
15 19 5
15 20 5
15 21 1
15 22 5
15 23 2
15 24 1
15 25 3
15 26 1
15 27 1
15 28 2
15 29 4
15 30 2
15 31 4
15 32 3
15 33 1
15 34 1
15 35 5
15 36 3
15 37 1
15 38 1
15 39 4
15 40 1
15 41 3
15 42 4
15 43 4
15 44 4
15 45 4
15 46 2
15 47 3
15 48 2
15 49 3
15 50 1
15 51 5
15 52 4
15 53 1
15 54 4
15 55 4
15 56 2
15 57 5
15 58 2
15 59 4
15 60 2
15 61 3
15 62 3
15 63 4
15 64 3
15 65 2
15 66 2
15 67 5
15 68 2
15 69 1
15 70 2
15 71 2
15 72 1
15 73 5
15 74 1
15 75 2
15 76 1
15 77 2
15 78 2
15 79 5
15 80 3
15 81 2
15 82 3
15 83 4
15 84 1
15 85 3
15 86 2
15 87 1
15 88 3
15 89 1
15 90 2
15 91 5
15 92 4
15 93 2
15 94 1
15 95 5
15 96 5
15 97 1
15 98 3
15 99 1
15 100 4
16 17 3
16 18 5
16 19 5
16 20 3
16 21 5
16 22 4
16 23 2
16 24 3
16 25 3
16 26 2
16 27 1
16 28 4
16 29 1
16 30 3
16 31 4
16 32 3
16 33 1
16 34 1
16 35 4
16 36 2
16 37 4
16 38 4
16 39 5
16 40 4
16 41 3
16 42 1
16 43 2
16 44 5
16 45 3
16 46 3
16 47 3
16 48 4
16 49 1
16 50 4
16 51 4
16 52 4
16 53 3
16 54 1
16 55 4
16 56 4
16 57 1
16 58 2
16 59 4
16 60 4
16 61 2
16 62 2
16 63 4
16 64 1
16 65 4
16 66 5
16 67 1
16 68 4
16 69 4
16 70 2
16 71 4
16 72 3
16 73 3
16 74 1
16 75 3
16 76 5
16 77 3
16 78 1
16 79 3
16 80 3
16 81 2
16 82 4
16 83 4
16 84 1
16 85 1
16 86 5
16 87 1
16 88 2
16 89 1
16 90 3
16 91 2
16 92 2
16 93 5
16 94 3
16 95 1
16 96 3
16 97 2
16 98 3
16 99 5
16 100 3
17 18 4
17 19 4
17 20 3
17 21 4
17 22 4
17 23 5
17 24 5
17 25 5
17 26 5
17 27 4
17 28 4
17 29 1
17 30 3
17 31 3
17 32 5
17 33 4
17 34 2
17 35 5
17 36 3
17 37 4
17 38 1
17 39 2
17 40 2
17 41 5
17 42 1
17 43 2
17 44 4
17 45 3
17 46 1
17 47 3
17 48 5
17 49 4
17 50 2
17 51 5
17 52 3
17 53 5
17 54 1
17 55 2
17 56 3
17 57 5
17 58 3
17 59 4
17 60 4
17 61 3
17 62 5
17 63 4
17 64 4
17 65 4
17 66 5
17 67 5
17 68 1
17 69 3
17 70 4
17 71 1
17 72 4
17 73 5
17 74 3
17 75 4
17 76 5
17 77 4
17 78 3
17 79 3
17 80 3
17 81 4
17 82 1
17 83 4
17 84 4
17 85 2
17 86 4
17 87 2
17 88 1
17 89 1
17 90 2
17 91 5
17 92 2
17 93 3
17 94 4
17 95 4
17 96 1
17 97 3
17 98 2
17 99 2
17 100 3
18 19 3
18 20 1
18 21 4
18 22 4
18 23 5
18 24 3
18 25 1
18 26 4
18 27 3
18 28 4
18 29 3
18 30 4
18 31 4
18 32 5
18 33 5
18 34 3
18 35 3
18 36 4
18 37 2
18 38 3
18 39 4
18 40 4
18 41 5
18 42 2
18 43 1
18 44 5
18 45 4
18 46 4
18 47 5
18 48 3
18 49 4
18 50 2
18 51 5
18 52 2
18 53 1
18 54 4
18 55 5
18 56 4
18 57 3
18 58 4
18 59 5
18 60 5
18 61 1
18 62 4
18 63 4
18 64 1
18 65 5
18 66 3
18 67 2
18 68 5
18 69 4
18 70 4
18 71 2
18 72 1
18 73 5
18 74 1
18 75 4
18 76 4
18 77 3
18 78 1
18 79 1
18 80 1
18 81 5
18 82 5
18 83 1
18 84 2
18 85 3
18 86 3
18 87 2
18 88 1
18 89 1
18 90 3
18 91 4
18 92 2
18 93 4
18 94 3
18 95 3
18 96 3
18 97 2
18 98 3
18 99 3
18 100 2
19 20 4
19 21 5
19 22 5
19 23 3
19 24 4
19 25 4
19 26 4
19 27 1
19 28 4
19 29 3
19 30 1
19 31 5
19 32 4
19 33 1
19 34 2
19 35 3
19 36 5
19 37 4
19 38 5
19 39 2
19 40 2
19 41 5
19 42 5
19 43 2
19 44 4
19 45 1
19 46 3
19 47 5
19 48 3
19 49 1
19 50 1
19 51 4
19 52 4
19 53 4
19 54 1
19 55 2
19 56 4
19 57 5
19 58 1
19 59 3
19 60 5
19 61 3
19 62 5
19 63 1
19 64 3
19 65 2
19 66 4
19 67 3
19 68 4
19 69 5
19 70 2
19 71 5
19 72 3
19 73 5
19 74 1
19 75 5
19 76 3
19 77 1
19 78 5
19 79 2
19 80 4
19 81 4
19 82 5
19 83 2
19 84 4
19 85 1
19 86 5
19 87 4
19 88 4
19 89 2
19 90 4
19 91 4
19 92 4
19 93 4
19 94 5
19 95 3
19 96 5
19 97 5
19 98 2
19 99 2
19 100 3
20 21 4
20 22 4
20 23 3
20 24 2
20 25 1
20 26 3
20 27 2
20 28 4
20 29 1
20 30 4
20 31 4
20 32 5
20 33 3
20 34 1
20 35 5
20 36 1
20 37 5
20 38 2
20 39 1
20 40 2
20 41 3
20 42 3
20 43 5
20 44 1
20 45 2
20 46 4
20 47 4
20 48 3
20 49 1
20 50 2
20 51 1
20 52 2
20 53 4
20 54 1
20 55 1
20 56 1
20 57 1
20 58 4
20 59 1
20 60 5
20 61 1
20 62 1
20 63 4
20 64 2
20 65 4
20 66 2
20 67 1
20 68 1
20 69 4
20 70 3
20 71 5
20 72 4
20 73 5
20 74 2
20 75 1
20 76 5
20 77 2
20 78 3
20 79 2
20 80 5
20 81 1
20 82 4
20 83 5
20 84 5
20 85 3
20 86 1
20 87 4
20 88 4
20 89 4
20 90 5
20 91 4
20 92 4
20 93 4
20 94 1
20 95 2
20 96 2
20 97 3
20 98 4
20 99 1
20 100 2
21 22 4
21 23 3
21 24 1
21 25 2
21 26 1
21 27 1
21 28 4
21 29 1
21 30 2
21 31 5
21 32 2
21 33 1
21 34 1
21 35 5
21 36 2
21 37 4
21 38 1
21 39 4
21 40 5
21 41 1
21 42 5
21 43 1
21 44 1
21 45 1
21 46 3
21 47 2
21 48 2
21 49 1
21 50 4
21 51 4
21 52 1
21 53 4
21 54 3
21 55 3
21 56 3
21 57 3
21 58 5
21 59 4
21 60 1
21 61 5
21 62 1
21 63 5
21 64 5
21 65 5
21 66 4
21 67 2
21 68 2
21 69 5
21 70 2
21 71 4
21 72 3
21 73 2
21 74 1
21 75 3
21 76 3
21 77 4
21 78 4
21 79 3
21 80 5
21 81 1
21 82 3
21 83 5
21 84 1
21 85 2
21 86 5
21 87 5
21 88 3
21 89 1
21 90 2
21 91 2
21 92 3
21 93 2
21 94 5
21 95 2
21 96 2
21 97 4
21 98 1
21 99 3
21 100 5
22 23 4
22 24 5
22 25 5
22 26 4
22 27 2
22 28 3
22 29 2
22 30 4
22 31 5
22 32 3
22 33 1
22 34 4
22 35 4
22 36 2
22 37 5
22 38 1
22 39 3
22 40 2
22 41 5
22 42 4
22 43 3
22 44 2
22 45 1
22 46 3
22 47 5
22 48 1
22 49 1
22 50 5
22 51 4
22 52 4
22 53 4
22 54 3
22 55 1
22 56 1
22 57 4
22 58 4
22 59 4
22 60 2
22 61 3
22 62 2
22 63 1
22 64 4
22 65 3
22 66 2
22 67 5
22 68 3
22 69 3
22 70 2
22 71 3
22 72 2
22 73 3
22 74 1
22 75 2
22 76 2
22 77 1
22 78 1
22 79 5
22 80 5
22 81 3
22 82 4
22 83 4
22 84 3
22 85 4
22 86 1
22 87 2
22 88 1
22 89 4
22 90 4
22 91 1
22 92 1
22 93 1
22 94 4
22 95 1
22 96 5
22 97 4
22 98 4
22 99 2
22 100 5
23 24 3
23 25 5
23 26 1
23 27 5
23 28 1
23 29 4
23 30 2
23 31 1
23 32 1
23 33 1
23 34 5
23 35 5
23 36 4
23 37 4
23 38 4
23 39 1
23 40 1
23 41 3
23 42 2
23 43 1
23 44 3
23 45 1
23 46 4
23 47 1
23 48 1
23 49 2
23 50 2
23 51 5
23 52 1
23 53 3
23 54 1
23 55 5
23 56 4
23 57 1
23 58 2
23 59 2
23 60 3
23 61 5
23 62 2
23 63 1
23 64 4
23 65 1
23 66 1
23 67 1
23 68 2
23 69 2
23 70 3
23 71 5
23 72 4
23 73 3
23 74 1
23 75 5
23 76 2
23 77 5
23 78 4
23 79 4
23 80 1
23 81 3
23 82 3
23 83 4
23 84 5
23 85 2
23 86 4
23 87 3
23 88 4
23 89 1
23 90 1
23 91 2
23 92 2
23 93 5
23 94 1
23 95 4
23 96 2
23 97 1
23 98 1
23 99 4
23 100 5
24 25 5
24 26 3
24 27 5
24 28 5
24 29 3
24 30 5
24 31 3
24 32 4
24 33 3
24 34 4
24 35 2
24 36 1
24 37 5
24 38 4
24 39 4
24 40 2
24 41 1
24 42 4
24 43 1
24 44 4
24 45 2
24 46 1
24 47 1
24 48 2
24 49 3
24 50 4
24 51 1
24 52 2
24 53 3
24 54 3
24 55 2
24 56 5
24 57 5
24 58 2
24 59 2
24 60 5
24 61 2
24 62 4
24 63 5
24 64 1
24 65 1
24 66 1
24 67 1
24 68 3
24 69 5
24 70 3
24 71 1
24 72 1
24 73 1
24 74 5
24 75 4
24 76 4
24 77 5
24 78 4
24 79 1
24 80 2
24 81 4
24 82 4
24 83 1
24 84 5
24 85 4
24 86 2
24 87 3
24 88 3
24 89 5
24 90 3
24 91 5
24 92 4
24 93 4
24 94 4
24 95 1
24 96 1
24 97 5
24 98 1
24 99 5
24 100 5
25 26 5
25 27 2
25 28 1
25 29 3
25 30 5
25 31 3
25 32 3
25 33 1
25 34 3
25 35 2
25 36 2
25 37 1
25 38 4
25 39 4
25 40 3
25 41 3
25 42 3
25 43 1
25 44 3
25 45 4
25 46 2
25 47 1
25 48 3
25 49 4
25 50 2
25 51 2
25 52 5
25 53 1
25 54 1
25 55 5
25 56 4
25 57 2
25 58 5
25 59 2
25 60 2
25 61 3
25 62 4
25 63 1
25 64 5
25 65 5
25 66 2
25 67 5
25 68 2
25 69 2
25 70 2
25 71 4
25 72 1
25 73 5
25 74 4
25 75 2
25 76 1
25 77 3
25 78 4
25 79 3
25 80 1
25 81 2
25 82 1
25 83 1
25 84 4
25 85 1
25 86 5
25 87 1
25 88 2
25 89 4
25 90 4
25 91 5
25 92 1
25 93 4
25 94 3
25 95 4
25 96 5
25 97 4
25 98 5
25 99 3
25 100 3
26 27 2
26 28 3
26 29 5
26 30 4
26 31 1
26 32 1
26 33 4
26 34 1
26 35 3
26 36 1
26 37 5
26 38 4
26 39 5
26 40 5
26 41 4
26 42 4
26 43 3
26 44 3
26 45 2
26 46 4
26 47 4
26 48 3
26 49 3
26 50 4
26 51 2
26 52 2
26 53 4
26 54 2
26 55 4
26 56 3
26 57 5
26 58 5
26 59 4
26 60 5
26 61 4
26 62 4
26 63 2
26 64 4
26 65 3
26 66 1
26 67 4
26 68 2
26 69 5
26 70 1
26 71 4
26 72 3
26 73 4
26 74 1
26 75 3
26 76 1
26 77 2
26 78 2
26 79 5
26 80 2
26 81 1
26 82 1
26 83 2
26 84 3
26 85 2
26 86 2
26 87 2
26 88 3
26 89 1
26 90 5
26 91 4
26 92 1
26 93 3
26 94 5
26 95 4
26 96 2
26 97 2
26 98 4
26 99 3
26 100 3
27 28 2
27 29 4
27 30 5
27 31 5
27 32 4
27 33 3
27 34 4
27 35 4
27 36 3
27 37 4
27 38 4
27 39 4
27 40 5
27 41 1
27 42 1
27 43 2
27 44 3
27 45 5
27 46 4
27 47 2
27 48 3
27 49 3
27 50 5
27 51 2
27 52 3
27 53 4
27 54 3
27 55 1
27 56 4
27 57 4
27 58 2
27 59 2
27 60 1
27 61 5
27 62 2
27 63 4
27 64 4
27 65 5
27 66 3
27 67 3
27 68 1
27 69 4
27 70 4
27 71 5
27 72 5
27 73 3
27 74 5
27 75 3
27 76 2
27 77 5
27 78 5
27 79 4
27 80 3
27 81 3
27 82 2
27 83 1
27 84 4
27 85 2
27 86 1
27 87 4
27 88 4
27 89 4
27 90 2
27 91 5
27 92 2
27 93 4
27 94 1
27 95 5
27 96 3
27 97 5
27 98 3
27 99 5
27 100 3
28 29 4
28 30 2
28 31 1
28 32 4
28 33 5
28 34 2
28 35 1
28 36 5
28 37 1
28 38 4
28 39 3
28 40 1
28 41 1
28 42 5
28 43 3
28 44 4
28 45 5
28 46 1
28 47 1
28 48 5
28 49 4
28 50 1
28 51 2
28 52 1
28 53 2
28 54 3
28 55 4
28 56 2
28 57 3
28 58 5
28 59 5
28 60 1
28 61 2
28 62 1
28 63 4
28 64 5
28 65 5
28 66 1
28 67 4
28 68 3
28 69 3
28 70 1
28 71 2
28 72 3
28 73 2
28 74 1
28 75 2
28 76 5
28 77 3
28 78 3
28 79 5
28 80 5
28 81 5
28 82 1
28 83 4
28 84 1
28 85 5
28 86 1
28 87 1
28 88 2
28 89 1
28 90 2
28 91 3
28 92 1
28 93 5
28 94 5
28 95 1
28 96 3
28 97 1
28 98 2
28 99 2
28 100 1
29 30 1
29 31 4
29 32 5
29 33 3
29 34 3
29 35 1
29 36 5
29 37 5
29 38 5
29 39 1
29 40 3
29 41 5
29 42 2
29 43 3
29 44 5
29 45 3
29 46 1
29 47 4
29 48 2
29 49 4
29 50 1
29 51 5
29 52 2
29 53 5
29 54 2
29 55 3
29 56 4
29 57 1
29 58 4
29 59 2
29 60 1
29 61 1
29 62 5
29 63 5
29 64 3
29 65 3
29 66 2
29 67 3
29 68 4
29 69 4
29 70 4
29 71 4
29 72 4
29 73 1
29 74 2
29 75 1
29 76 1
29 77 5
29 78 5
29 79 3
29 80 2
29 81 4
29 82 2
29 83 4
29 84 1
29 85 5
29 86 4
29 87 4
29 88 3
29 89 1
29 90 4
29 91 2
29 92 3
29 93 4
29 94 2
29 95 5
29 96 5
29 97 3
29 98 1
29 99 1
29 100 2
30 31 3
30 32 2
30 33 4
30 34 3
30 35 2
30 36 1
30 37 4
30 38 2
30 39 1
30 40 4
30 41 2
30 42 2
30 43 3
30 44 5
30 45 2
30 46 1
30 47 5
30 48 2
30 49 5
30 50 4
30 51 1
30 52 3
30 53 2
30 54 5
30 55 2
30 56 4
30 57 5
30 58 1
30 59 1
30 60 1
30 61 1
30 62 1
30 63 5
30 64 3
30 65 5
30 66 1
30 67 1
30 68 4
30 69 2
30 70 2
30 71 1
30 72 3
30 73 3
30 74 5
30 75 1
30 76 2
30 77 1
30 78 3
30 79 3
30 80 5
30 81 5
30 82 4
30 83 4
30 84 4
30 85 5
30 86 3
30 87 1
30 88 1
30 89 5
30 90 4
30 91 3
30 92 2
30 93 5
30 94 5
30 95 1
30 96 3
30 97 3
30 98 1
30 99 5
30 100 2
31 32 3
31 33 5
31 34 3
31 35 2
31 36 2
31 37 2
31 38 1
31 39 5
31 40 2
31 41 4
31 42 5
31 43 2
31 44 3
31 45 2
31 46 1
31 47 1
31 48 4
31 49 1
31 50 4
31 51 3
31 52 5
31 53 2
31 54 4
31 55 5
31 56 3
31 57 2
31 58 3
31 59 3
31 60 2
31 61 3
31 62 1
31 63 5
31 64 4
31 65 5
31 66 2
31 67 3
31 68 1
31 69 5
31 70 1
31 71 5
31 72 4
31 73 4
31 74 2
31 75 3
31 76 4
31 77 2
31 78 1
31 79 2
31 80 4
31 81 3
31 82 5
31 83 4
31 84 4
31 85 5
31 86 1
31 87 1
31 88 4
31 89 5
31 90 4
31 91 5
31 92 5
31 93 4
31 94 1
31 95 2
31 96 1
31 97 4
31 98 1
31 99 4
31 100 5
32 33 1
32 34 5
32 35 5
32 36 1
32 37 3
32 38 3
32 39 1
32 40 1
32 41 5
32 42 2
32 43 3
32 44 2
32 45 4
32 46 2
32 47 3
32 48 3
32 49 3
32 50 5
32 51 2
32 52 1
32 53 5
32 54 5
32 55 4
32 56 4
32 57 2
32 58 1
32 59 4
32 60 4
32 61 4
32 62 4
32 63 5
32 64 4
32 65 4
32 66 5
32 67 5
32 68 2
32 69 2
32 70 4
32 71 3
32 72 3
32 73 4
32 74 1
32 75 3
32 76 1
32 77 4
32 78 2
32 79 5
32 80 2
32 81 3
32 82 3
32 83 4
32 84 1
32 85 4
32 86 3
32 87 5
32 88 3
32 89 2
32 90 2
32 91 1
32 92 2
32 93 5
32 94 3
32 95 1
32 96 5
32 97 3
32 98 3
32 99 2
32 100 5
33 34 4
33 35 3
33 36 5
33 37 3
33 38 4
33 39 4
33 40 4
33 41 2
33 42 2
33 43 5
33 44 1
33 45 5
33 46 2
33 47 1
33 48 2
33 49 1
33 50 3
33 51 5
33 52 1
33 53 3
33 54 2
33 55 2
33 56 5
33 57 1
33 58 3
33 59 5
33 60 3
33 61 3
33 62 3
33 63 5
33 64 3
33 65 3
33 66 3
33 67 3
33 68 4
33 69 3
33 70 3
33 71 1
33 72 4
33 73 4
33 74 1
33 75 2
33 76 1
33 77 3
33 78 5
33 79 5
33 80 2
33 81 4
33 82 3
33 83 4
33 84 1
33 85 4
33 86 2
33 87 4
33 88 4
33 89 1
33 90 3
33 91 2
33 92 2
33 93 1
33 94 3
33 95 5
33 96 2
33 97 5
33 98 5
33 99 4
33 100 2
34 35 5
34 36 4
34 37 4
34 38 1
34 39 2
34 40 1
34 41 4
34 42 3
34 43 5
34 44 1
34 45 4
34 46 2
34 47 5
34 48 5
34 49 3
34 50 4
34 51 5
34 52 2
34 53 5
34 54 4
34 55 1
34 56 2
34 57 4
34 58 3
34 59 1
34 60 4
34 61 2
34 62 2
34 63 4
34 64 4
34 65 5
34 66 1
34 67 1
34 68 1
34 69 2
34 70 1
34 71 3
34 72 4
34 73 2
34 74 2
34 75 3
34 76 1
34 77 5
34 78 2
34 79 2
34 80 3
34 81 4
34 82 1
34 83 5
34 84 4
34 85 5
34 86 4
34 87 3
34 88 4
34 89 3
34 90 1
34 91 2
34 92 2
34 93 5
34 94 3
34 95 5
34 96 3
34 97 5
34 98 4
34 99 4
34 100 2
35 36 4
35 37 4
35 38 4
35 39 5
35 40 1
35 41 3
35 42 4
35 43 2
35 44 2
35 45 4
35 46 2
35 47 4
35 48 3
35 49 1
35 50 1
35 51 2
35 52 5
35 53 5
35 54 3
35 55 2
35 56 3
35 57 2
35 58 1
35 59 2
35 60 5
35 61 2
35 62 3
35 63 5
35 64 2
35 65 1
35 66 4
35 67 1
35 68 1
35 69 3
35 70 5
35 71 1
35 72 4
35 73 3
35 74 1
35 75 2
35 76 4
35 77 2
35 78 4
35 79 5
35 80 4
35 81 5
35 82 5
35 83 1
35 84 5
35 85 1
35 86 3
35 87 1
35 88 1
35 89 1
35 90 1
35 91 3
35 92 3
35 93 1
35 94 3
35 95 4
35 96 5
35 97 4
35 98 2
35 99 1
35 100 3
36 37 1
36 38 2
36 39 5
36 40 5
36 41 1
36 42 4
36 43 2
36 44 5
36 45 3
36 46 3
36 47 3
36 48 4
36 49 4
36 50 2
36 51 4
36 52 1
36 53 3
36 54 1
36 55 4
36 56 5
36 57 1
36 58 2
36 59 3
36 60 4
36 61 2
36 62 1
36 63 1
36 64 5
36 65 5
36 66 1
36 67 4
36 68 2
36 69 5
36 70 3
36 71 4
36 72 2
36 73 3
36 74 3
36 75 2
36 76 4
36 77 3
36 78 2
36 79 1
36 80 5
36 81 5
36 82 4
36 83 2
36 84 3
36 85 1
36 86 3
36 87 5
36 88 1
36 89 2
36 90 5
36 91 5
36 92 4
36 93 1
36 94 5
36 95 3
36 96 3
36 97 3
36 98 5
36 99 1
36 100 1
37 38 1
37 39 1
37 40 2
37 41 5
37 42 2
37 43 2
37 44 2
37 45 2
37 46 2
37 47 4
37 48 4
37 49 5
37 50 4
37 51 2
37 52 4
37 53 3
37 54 3
37 55 1
37 56 3
37 57 5
37 58 5
37 59 2
37 60 2
37 61 3
37 62 3
37 63 3
37 64 2
37 65 2
37 66 5
37 67 2
37 68 2
37 69 4
37 70 2
37 71 4
37 72 5
37 73 2
37 74 1
37 75 3
37 76 3
37 77 3
37 78 3
37 79 2
37 80 4
37 81 5
37 82 1
37 83 1
37 84 1
37 85 2
37 86 2
37 87 4
37 88 2
37 89 1
37 90 5
37 91 1
37 92 2
37 93 5
37 94 2
37 95 3
37 96 5
37 97 2
37 98 3
37 99 1
37 100 1
38 39 3
38 40 5
38 41 3
38 42 2
38 43 4
38 44 5
38 45 1
38 46 4
38 47 5
38 48 4
38 49 5
38 50 2
38 51 2
38 52 5
38 53 3
38 54 4
38 55 3
38 56 2
38 57 5
38 58 5
38 59 4
38 60 4
38 61 2
38 62 2
38 63 3
38 64 1
38 65 3
38 66 3
38 67 3
38 68 2
38 69 1
38 70 1
38 71 4
38 72 4
38 73 4
38 74 5
38 75 4
38 76 2
38 77 5
38 78 5
38 79 4
38 80 5
38 81 5
38 82 5
38 83 2
38 84 5
38 85 1
38 86 2
38 87 1
38 88 3
38 89 3
38 90 1
38 91 1
38 92 4
38 93 1
38 94 1
38 95 3
38 96 5
38 97 2
38 98 2
38 99 2
38 100 1
39 40 2
39 41 4
39 42 5
39 43 1
39 44 5
39 45 4
39 46 1
39 47 4
39 48 3
39 49 4
39 50 5
39 51 3
39 52 2
39 53 1
39 54 3
39 55 1
39 56 4
39 57 5
39 58 1
39 59 4
39 60 2
39 61 4
39 62 3
39 63 1
39 64 1
39 65 4
39 66 1
39 67 3
39 68 4
39 69 4
39 70 4
39 71 1
39 72 3
39 73 4
39 74 5
39 75 5
39 76 1
39 77 2
39 78 4
39 79 5
39 80 5
39 81 5
39 82 2
39 83 4
39 84 5
39 85 4
39 86 1
39 87 3
39 88 3
39 89 3
39 90 5
39 91 3
39 92 2
39 93 3
39 94 2
39 95 2
39 96 4
39 97 5
39 98 4
39 99 5
39 100 2
40 41 2
40 42 3
40 43 4
40 44 2
40 45 2
40 46 2
40 47 1
40 48 3
40 49 4
40 50 1
40 51 3
40 52 1
40 53 2
40 54 4
40 55 3
40 56 1
40 57 3
40 58 2
40 59 1
40 60 2
40 61 3
40 62 5
40 63 4
40 64 2
40 65 3
40 66 2
40 67 1
40 68 4
40 69 5
40 70 2
40 71 5
40 72 4
40 73 5
40 74 1
40 75 5
40 76 1
40 77 1
40 78 5
40 79 2
40 80 2
40 81 1
40 82 3
40 83 2
40 84 4
40 85 2
40 86 1
40 87 5
40 88 4
40 89 5
40 90 4
40 91 1
40 92 2
40 93 3
40 94 4
40 95 4
40 96 4
40 97 2
40 98 3
40 99 5
40 100 2
41 42 5
41 43 2
41 44 2
41 45 1
41 46 2
41 47 4
41 48 2
41 49 5
41 50 1
41 51 4
41 52 5
41 53 5
41 54 3
41 55 1
41 56 2
41 57 4
41 58 1
41 59 2
41 60 1
41 61 4
41 62 2
41 63 5
41 64 4
41 65 2
41 66 4
41 67 3
41 68 3
41 69 1
41 70 4
41 71 1
41 72 2
41 73 1
41 74 2
41 75 1
41 76 3
41 77 4
41 78 4
41 79 5
41 80 4
41 81 1
41 82 3
41 83 2
41 84 3
41 85 1
41 86 1
41 87 3
41 88 5
41 89 4
41 90 5
41 91 3
41 92 5
41 93 5
41 94 3
41 95 3
41 96 5
41 97 1
41 98 2
41 99 2
41 100 2
42 43 2
42 44 5
42 45 1
42 46 3
42 47 5
42 48 2
42 49 1
42 50 4
42 51 3
42 52 5
42 53 5
42 54 3
42 55 5
42 56 3
42 57 1
42 58 1
42 59 3
42 60 3
42 61 3
42 62 1
42 63 1
42 64 5
42 65 3
42 66 4
42 67 2
42 68 3
42 69 1
42 70 4
42 71 1
42 72 1
42 73 2
42 74 5
42 75 4
42 76 3
42 77 4
42 78 1
42 79 4
42 80 1
42 81 4
42 82 4
42 83 5
42 84 1
42 85 4
42 86 3
42 87 1
42 88 1
42 89 5
42 90 4
42 91 4
42 92 5
42 93 2
42 94 5
42 95 1
42 96 5
42 97 1
42 98 1
42 99 2
42 100 1
43 44 2
43 45 2
43 46 5
43 47 4
43 48 2
43 49 1
43 50 3
43 51 2
43 52 1
43 53 3
43 54 1
43 55 3
43 56 5
43 57 5
43 58 1
43 59 2
43 60 5
43 61 3
43 62 5
43 63 2
43 64 1
43 65 3
43 66 4
43 67 4
43 68 5
43 69 3
43 70 4
43 71 5
43 72 1
43 73 5
43 74 3
43 75 2
43 76 2
43 77 5
43 78 5
43 79 3
43 80 1
43 81 3
43 82 4
43 83 3
43 84 5
43 85 5
43 86 4
43 87 4
43 88 1
43 89 3
43 90 1
43 91 2
43 92 4
43 93 1
43 94 4
43 95 3
43 96 5
43 97 4
43 98 4
43 99 3
43 100 4
44 45 3
44 46 2
44 47 4
44 48 2
44 49 4
44 50 5
44 51 2
44 52 3
44 53 4
44 54 3
44 55 1
44 56 5
44 57 3
44 58 3
44 59 3
44 60 1
44 61 1
44 62 4
44 63 1
44 64 4
44 65 5
44 66 5
44 67 2
44 68 3
44 69 2
44 70 1
44 71 3
44 72 4
44 73 4
44 74 5
44 75 1
44 76 2
44 77 2
44 78 2
44 79 5
44 80 5
44 81 2
44 82 4
44 83 1
44 84 2
44 85 2
44 86 3
44 87 2
44 88 4
44 89 3
44 90 4
44 91 4
44 92 5
44 93 1
44 94 1
44 95 1
44 96 1
44 97 2
44 98 4
44 99 1
44 100 3
45 46 5
45 47 5
45 48 3
45 49 5
45 50 4
45 51 5
45 52 2
45 53 4
45 54 4
45 55 2
45 56 1
45 57 1
45 58 2
45 59 1
45 60 1
45 61 3
45 62 4
45 63 5
45 64 3
45 65 3
45 66 4
45 67 3
45 68 2
45 69 4
45 70 3
45 71 4
45 72 2
45 73 1
45 74 2
45 75 1
45 76 5
45 77 3
45 78 2
45 79 1
45 80 4
45 81 2
45 82 2
45 83 5
45 84 1
45 85 4
45 86 4
45 87 5
45 88 5
45 89 3
45 90 1
45 91 5
45 92 3
45 93 4
45 94 5
45 95 2
45 96 5
45 97 4
45 98 5
45 99 5
45 100 1
46 47 2
46 48 4
46 49 5
46 50 1
46 51 5
46 52 5
46 53 5
46 54 3
46 55 1
46 56 5
46 57 1
46 58 2
46 59 5
46 60 2
46 61 3
46 62 1
46 63 1
46 64 5
46 65 4
46 66 1
46 67 2
46 68 5
46 69 5
46 70 4
46 71 1
46 72 2
46 73 1
46 74 1
46 75 1
46 76 5
46 77 5
46 78 3
46 79 3
46 80 1
46 81 5
46 82 2
46 83 3
46 84 3
46 85 5
46 86 5
46 87 1
46 88 1
46 89 4
46 90 4
46 91 1
46 92 1
46 93 3
46 94 2
46 95 3
46 96 3
46 97 2
46 98 3
46 99 2
46 100 1
47 48 3
47 49 4
47 50 2
47 51 3
47 52 4
47 53 3
47 54 5
47 55 4
47 56 5
47 57 5
47 58 2
47 59 3
47 60 5
47 61 1
47 62 2
47 63 1
47 64 5
47 65 3
47 66 2
47 67 1
47 68 3
47 69 1
47 70 3
47 71 3
47 72 5
47 73 4
47 74 4
47 75 4
47 76 2
47 77 4
47 78 3
47 79 1
47 80 3
47 81 2
47 82 1
47 83 5
47 84 1
47 85 2
47 86 2
47 87 4
47 88 3
47 89 3
47 90 1
47 91 4
47 92 5
47 93 3
47 94 2
47 95 2
47 96 2
47 97 4
47 98 2
47 99 3
47 100 1
48 49 5
48 50 1
48 51 1
48 52 2
48 53 3
48 54 2
48 55 4
48 56 3
48 57 5
48 58 2
48 59 2
48 60 5
48 61 5
48 62 5
48 63 5
48 64 1
48 65 3
48 66 3
48 67 5
48 68 2
48 69 5
48 70 2
48 71 2
48 72 4
48 73 5
48 74 3
48 75 5
48 76 4
48 77 5
48 78 3
48 79 3
48 80 1
48 81 4
48 82 5
48 83 5
48 84 3
48 85 3
48 86 2
48 87 5
48 88 5
48 89 4
48 90 2
48 91 4
48 92 5
48 93 3
48 94 3
48 95 5
48 96 2
48 97 4
48 98 3
48 99 1
48 100 5
49 50 2
49 51 5
49 52 1
49 53 3
49 54 3
49 55 5
49 56 4
49 57 4
49 58 5
49 59 4
49 60 1
49 61 4
49 62 2
49 63 4
49 64 3
49 65 5
49 66 5
49 67 3
49 68 3
49 69 2
49 70 2
49 71 1
49 72 1
49 73 4
49 74 1
49 75 4
49 76 2
49 77 4
49 78 2
49 79 1
49 80 5
49 81 1
49 82 2
49 83 1
49 84 5
49 85 1
49 86 1
49 87 1
49 88 4
49 89 4
49 90 5
49 91 5
49 92 5
49 93 4
49 94 5
49 95 2
49 96 5
49 97 2
49 98 5
49 99 1
49 100 3
50 51 1
50 52 3
50 53 5
50 54 5
50 55 3
50 56 1
50 57 3
50 58 1
50 59 4
50 60 4
50 61 2
50 62 3
50 63 2
50 64 1
50 65 5
50 66 3
50 67 4
50 68 1
50 69 1
50 70 5
50 71 3
50 72 2
50 73 2
50 74 3
50 75 5
50 76 1
50 77 2
50 78 3
50 79 5
50 80 3
50 81 2
50 82 1
50 83 1
50 84 3
50 85 3
50 86 4
50 87 4
50 88 4
50 89 5
50 90 5
50 91 4
50 92 5
50 93 3
50 94 4
50 95 2
50 96 1
50 97 2
50 98 1
50 99 5
50 100 5
51 52 4
51 53 3
51 54 5
51 55 2
51 56 1
51 57 1
51 58 1
51 59 2
51 60 4
51 61 1
51 62 1
51 63 2
51 64 3
51 65 1
51 66 1
51 67 2
51 68 3
51 69 3
51 70 4
51 71 5
51 72 5
51 73 3
51 74 4
51 75 2
51 76 4
51 77 5
51 78 3
51 79 4
51 80 2
51 81 2
51 82 2
51 83 4
51 84 2
51 85 1
51 86 1
51 87 1
51 88 1
51 89 4
51 90 3
51 91 5
51 92 3
51 93 1
51 94 5
51 95 1
51 96 1
51 97 5
51 98 5
51 99 4
51 100 4
52 53 3
52 54 4
52 55 3
52 56 5
52 57 3
52 58 2
52 59 5
52 60 5
52 61 2
52 62 1
52 63 1
52 64 5
52 65 4
52 66 4
52 67 5
52 68 1
52 69 1
52 70 2
52 71 1
52 72 4
52 73 5
52 74 5
52 75 3
52 76 4
52 77 1
52 78 2
52 79 1
52 80 4
52 81 3
52 82 1
52 83 3
52 84 4
52 85 4
52 86 4
52 87 3
52 88 4
52 89 5
52 90 1
52 91 4
52 92 1
52 93 4
52 94 4
52 95 4
52 96 5
52 97 3
52 98 2
52 99 1
52 100 1
53 54 2
53 55 4
53 56 5
53 57 3
53 58 4
53 59 1
53 60 5
53 61 2
53 62 5
53 63 3
53 64 2
53 65 4
53 66 5
53 67 1
53 68 3
53 69 3
53 70 2
53 71 1
53 72 5
53 73 4
53 74 2
53 75 5
53 76 2
53 77 1
53 78 3
53 79 1
53 80 4
53 81 4
53 82 3
53 83 2
53 84 3
53 85 5
53 86 2
53 87 1
53 88 1
53 89 4
53 90 5
53 91 3
53 92 3
53 93 3
53 94 5
53 95 5
53 96 3
53 97 4
53 98 2
53 99 3
53 100 3
54 55 2
54 56 3
54 57 2
54 58 1
54 59 3
54 60 2
54 61 4
54 62 4
54 63 2
54 64 3
54 65 2
54 66 5
54 67 2
54 68 4
54 69 2
54 70 5
54 71 3
54 72 3
54 73 2
54 74 2
54 75 1
54 76 1
54 77 3
54 78 2
54 79 3
54 80 2
54 81 3
54 82 3
54 83 5
54 84 5
54 85 4
54 86 1
54 87 5
54 88 3
54 89 2
54 90 5
54 91 4
54 92 5
54 93 2
54 94 3
54 95 3
54 96 4
54 97 1
54 98 5
54 99 2
54 100 5
55 56 5
55 57 3
55 58 1
55 59 3
55 60 1
55 61 3
55 62 2
55 63 5
55 64 4
55 65 3
55 66 2
55 67 4
55 68 5
55 69 3
55 70 3
55 71 4
55 72 1
55 73 2
55 74 3
55 75 2
55 76 5
55 77 3
55 78 3
55 79 5
55 80 3
55 81 1
55 82 2
55 83 2
55 84 5
55 85 5
55 86 3
55 87 2
55 88 1
55 89 3
55 90 1
55 91 4
55 92 1
55 93 2
55 94 5
55 95 4
55 96 4
55 97 2
55 98 5
55 99 3
55 100 5
56 57 3
56 58 2
56 59 3
56 60 1
56 61 2
56 62 3
56 63 1
56 64 5
56 65 2
56 66 2
56 67 4
56 68 5
56 69 4
56 70 5
56 71 5
56 72 1
56 73 4
56 74 2
56 75 4
56 76 1
56 77 5
56 78 3
56 79 4
56 80 5
56 81 2
56 82 5
56 83 4
56 84 2
56 85 1
56 86 4
56 87 3
56 88 5
56 89 2
56 90 5
56 91 1
56 92 4
56 93 4
56 94 4
56 95 5
56 96 2
56 97 3
56 98 1
56 99 1
56 100 3
57 58 3
57 59 5
57 60 1
57 61 1
57 62 5
57 63 1
57 64 4
57 65 2
57 66 4
57 67 4
57 68 3
57 69 3
57 70 4
57 71 1
57 72 4
57 73 2
57 74 4
57 75 2
57 76 1
57 77 3
57 78 1
57 79 4
57 80 4
57 81 4
57 82 2
57 83 2
57 84 1
57 85 1
57 86 5
57 87 2
57 88 5
57 89 2
57 90 2
57 91 2
57 92 1
57 93 3
57 94 2
57 95 4
57 96 1
57 97 2
57 98 1
57 99 1
57 100 1
58 59 4
58 60 4
58 61 3
58 62 5
58 63 3
58 64 4
58 65 1
58 66 1
58 67 4
58 68 2
58 69 4
58 70 5
58 71 4
58 72 3
58 73 2
58 74 3
58 75 2
58 76 5
58 77 4
58 78 4
58 79 1
58 80 5
58 81 3
58 82 5
58 83 3
58 84 3
58 85 5
58 86 2
58 87 2
58 88 5
58 89 3
58 90 3
58 91 2
58 92 2
58 93 5
58 94 4
58 95 4
58 96 2
58 97 5
58 98 4
58 99 2
58 100 4
59 60 1
59 61 2
59 62 1
59 63 1
59 64 1
59 65 3
59 66 5
59 67 2
59 68 1
59 69 3
59 70 5
59 71 1
59 72 1
59 73 1
59 74 2
59 75 3
59 76 3
59 77 3
59 78 2
59 79 4
59 80 5
59 81 3
59 82 3
59 83 4
59 84 5
59 85 5
59 86 5
59 87 4
59 88 2
59 89 4
59 90 4
59 91 2
59 92 2
59 93 4
59 94 2
59 95 4
59 96 4
59 97 4
59 98 1
59 99 5
59 100 4
60 61 2
60 62 5
60 63 4
60 64 2
60 65 5
60 66 4
60 67 3
60 68 1
60 69 2
60 70 5
60 71 4
60 72 2
60 73 5
60 74 3
60 75 5
60 76 4
60 77 4
60 78 3
60 79 5
60 80 3
60 81 4
60 82 1
60 83 1
60 84 5
60 85 4
60 86 3
60 87 1
60 88 2
60 89 4
60 90 3
60 91 5
60 92 3
60 93 1
60 94 2
60 95 3
60 96 1
60 97 3
60 98 2
60 99 4
60 100 2
61 62 1
61 63 5
61 64 4
61 65 5
61 66 1
61 67 4
61 68 5
61 69 4
61 70 3
61 71 5
61 72 1
61 73 4
61 74 4
61 75 2
61 76 4
61 77 1
61 78 4
61 79 3
61 80 3
61 81 5
61 82 5
61 83 5
61 84 4
61 85 5
61 86 5
61 87 3
61 88 5
61 89 2
61 90 1
61 91 1
61 92 3
61 93 2
61 94 2
61 95 1
61 96 1
61 97 1
61 98 3
61 99 5
61 100 5
62 63 3
62 64 2
62 65 2
62 66 1
62 67 4
62 68 5
62 69 3
62 70 3
62 71 5
62 72 1
62 73 5
62 74 3
62 75 2
62 76 5
62 77 2
62 78 4
62 79 2
62 80 5
62 81 1
62 82 3
62 83 1
62 84 4
62 85 1
62 86 5
62 87 4
62 88 1
62 89 5
62 90 5
62 91 3
62 92 4
62 93 2
62 94 2
62 95 4
62 96 4
62 97 2
62 98 2
62 99 1
62 100 2
63 64 5
63 65 2
63 66 4
63 67 5
63 68 2
63 69 2
63 70 4
63 71 1
63 72 5
63 73 3
63 74 3
63 75 5
63 76 1
63 77 2
63 78 1
63 79 3
63 80 5
63 81 3
63 82 5
63 83 5
63 84 1
63 85 4
63 86 4
63 87 4
63 88 1
63 89 1
63 90 2
63 91 4
63 92 5
63 93 5
63 94 2
63 95 2
63 96 1
63 97 2
63 98 1
63 99 3
63 100 2
64 65 2
64 66 2
64 67 2
64 68 5
64 69 3
64 70 5
64 71 5
64 72 1
64 73 5
64 74 3
64 75 1
64 76 1
64 77 2
64 78 3
64 79 2
64 80 5
64 81 2
64 82 1
64 83 4
64 84 3
64 85 5
64 86 5
64 87 2
64 88 5
64 89 1
64 90 3
64 91 5
64 92 4
64 93 5
64 94 1
64 95 2
64 96 1
64 97 5
64 98 2
64 99 3
64 100 3
65 66 3
65 67 2
65 68 4
65 69 2
65 70 1
65 71 1
65 72 1
65 73 2
65 74 5
65 75 5
65 76 4
65 77 4
65 78 4
65 79 3
65 80 1
65 81 1
65 82 5
65 83 2
65 84 4
65 85 1
65 86 1
65 87 4
65 88 3
65 89 4
65 90 4
65 91 4
65 92 3
65 93 4
65 94 5
65 95 2
65 96 2
65 97 4
65 98 3
65 99 5
65 100 3
66 67 2
66 68 1
66 69 4
66 70 2
66 71 5
66 72 4
66 73 4
66 74 5
66 75 4
66 76 4
66 77 5
66 78 2
66 79 4
66 80 5
66 81 4
66 82 5
66 83 1
66 84 4
66 85 3
66 86 3
66 87 2
66 88 2
66 89 2
66 90 1
66 91 3
66 92 1
66 93 2
66 94 4
66 95 3
66 96 1
66 97 2
66 98 3
66 99 4
66 100 5
67 68 1
67 69 2
67 70 2
67 71 4
67 72 1
67 73 4
67 74 4
67 75 3
67 76 3
67 77 2
67 78 3
67 79 5
67 80 2
67 81 2
67 82 5
67 83 1
67 84 2
67 85 5
67 86 5
67 87 3
67 88 1
67 89 3
67 90 4
67 91 4
67 92 1
67 93 5
67 94 4
67 95 3
67 96 5
67 97 3
67 98 3
67 99 1
67 100 3
68 69 4
68 70 5
68 71 3
68 72 2
68 73 1
68 74 5
68 75 4
68 76 2
68 77 5
68 78 2
68 79 3
68 80 5
68 81 1
68 82 2
68 83 3
68 84 2
68 85 3
68 86 1
68 87 2
68 88 4
68 89 3
68 90 3
68 91 2
68 92 4
68 93 2
68 94 4
68 95 3
68 96 1
68 97 2
68 98 4
68 99 4
68 100 4
69 70 3
69 71 5
69 72 1
69 73 5
69 74 3
69 75 4
69 76 4
69 77 1
69 78 3
69 79 4
69 80 1
69 81 1
69 82 1
69 83 3
69 84 2
69 85 4
69 86 2
69 87 4
69 88 2
69 89 1
69 90 2
69 91 1
69 92 1
69 93 4
69 94 3
69 95 1
69 96 3
69 97 2
69 98 1
69 99 3
69 100 1
70 71 3
70 72 4
70 73 2
70 74 4
70 75 4
70 76 1
70 77 1
70 78 2
70 79 2
70 80 3
70 81 3
70 82 1
70 83 3
70 84 4
70 85 1
70 86 5
70 87 5
70 88 5
70 89 1
70 90 4
70 91 1
70 92 5
70 93 5
70 94 2
70 95 3
70 96 5
70 97 1
70 98 3
70 99 5
70 100 2
71 72 2
71 73 2
71 74 1
71 75 4
71 76 3
71 77 1
71 78 5
71 79 4
71 80 3
71 81 1
71 82 3
71 83 1
71 84 1
71 85 2
71 86 1
71 87 4
71 88 3
71 89 2
71 90 4
71 91 4
71 92 5
71 93 3
71 94 4
71 95 1
71 96 4
71 97 1
71 98 2
71 99 5
71 100 3
72 73 1
72 74 5
72 75 4
72 76 3
72 77 4
72 78 2
72 79 2
72 80 2
72 81 1
72 82 3
72 83 1
72 84 1
72 85 2
72 86 2
72 87 5
72 88 3
72 89 4
72 90 4
72 91 3
72 92 3
72 93 4
72 94 4
72 95 3
72 96 4
72 97 3
72 98 5
72 99 3
72 100 1
73 74 5
73 75 1
73 76 3
73 77 2
73 78 2
73 79 2
73 80 2
73 81 2
73 82 1
73 83 4
73 84 3
73 85 3
73 86 3
73 87 2
73 88 2
73 89 1
73 90 4
73 91 3
73 92 1
73 93 3
73 94 2
73 95 1
73 96 4
73 97 1
73 98 5
73 99 5
73 100 5
74 75 2
74 76 4
74 77 2
74 78 2
74 79 2
74 80 5
74 81 5
74 82 2
74 83 5
74 84 5
74 85 3
74 86 4
74 87 1
74 88 4
74 89 3
74 90 3
74 91 4
74 92 4
74 93 4
74 94 5
74 95 1
74 96 5
74 97 3
74 98 3
74 99 2
74 100 3
75 76 1
75 77 4
75 78 2
75 79 1
75 80 3
75 81 2
75 82 4
75 83 2
75 84 3
75 85 2
75 86 5
75 87 4
75 88 2
75 89 2
75 90 4
75 91 3
75 92 4
75 93 1
75 94 3
75 95 3
75 96 2
75 97 5
75 98 5
75 99 2
75 100 2
76 77 4
76 78 2
76 79 3
76 80 1
76 81 1
76 82 3
76 83 1
76 84 2
76 85 1
76 86 3
76 87 5
76 88 1
76 89 4
76 90 5
76 91 2
76 92 1
76 93 3
76 94 1
76 95 1
76 96 1
76 97 1
76 98 3
76 99 4
76 100 4
77 78 3
77 79 2
77 80 3
77 81 2
77 82 4
77 83 4
77 84 5
77 85 3
77 86 4
77 87 2
77 88 2
77 89 1
77 90 5
77 91 5
77 92 4
77 93 3
77 94 5
77 95 5
77 96 1
77 97 5
77 98 4
77 99 1
77 100 1
78 79 3
78 80 1
78 81 3
78 82 5
78 83 3
78 84 1
78 85 5
78 86 1
78 87 4
78 88 1
78 89 5
78 90 4
78 91 2
78 92 4
78 93 5
78 94 5
78 95 5
78 96 2
78 97 3
78 98 1
78 99 3
78 100 3
79 80 2
79 81 4
79 82 3
79 83 1
79 84 3
79 85 1
79 86 1
79 87 5
79 88 2
79 89 5
79 90 1
79 91 3
79 92 1
79 93 5
79 94 5
79 95 1
79 96 1
79 97 1
79 98 4
79 99 3
79 100 1
80 81 5
80 82 5
80 83 3
80 84 2
80 85 3
80 86 4
80 87 4
80 88 2
80 89 5
80 90 4
80 91 2
80 92 1
80 93 2
80 94 1
80 95 4
80 96 5
80 97 5
80 98 4
80 99 3
80 100 3
81 82 4
81 83 1
81 84 3
81 85 5
81 86 2
81 87 5
81 88 5
81 89 5
81 90 2
81 91 1
81 92 4
81 93 5
81 94 5
81 95 2
81 96 3
81 97 3
81 98 2
81 99 2
81 100 5
82 83 3
82 84 1
82 85 2
82 86 4
82 87 2
82 88 1
82 89 2
82 90 4
82 91 2
82 92 5
82 93 5
82 94 2
82 95 1
82 96 4
82 97 4
82 98 2
82 99 5
82 100 2
83 84 3
83 85 5
83 86 4
83 87 3
83 88 3
83 89 1
83 90 3
83 91 4
83 92 5
83 93 2
83 94 3
83 95 3
83 96 2
83 97 4
83 98 3
83 99 2
83 100 4
84 85 3
84 86 4
84 87 4
84 88 2
84 89 4
84 90 1
84 91 5
84 92 3
84 93 1
84 94 5
84 95 5
84 96 1
84 97 4
84 98 3
84 99 3
84 100 4
85 86 5
85 87 5
85 88 2
85 89 2
85 90 3
85 91 1
85 92 5
85 93 4
85 94 3
85 95 1
85 96 4
85 97 5
85 98 4
85 99 5
85 100 1
86 87 4
86 88 3
86 89 1
86 90 4
86 91 2
86 92 5
86 93 1
86 94 5
86 95 2
86 96 2
86 97 5
86 98 2
86 99 3
86 100 5
87 88 2
87 89 5
87 90 4
87 91 2
87 92 2
87 93 4
87 94 5
87 95 5
87 96 2
87 97 2
87 98 3
87 99 5
87 100 5
88 89 5
88 90 3
88 91 1
88 92 1
88 93 4
88 94 4
88 95 5
88 96 2
88 97 2
88 98 3
88 99 2
88 100 5
89 90 3
89 91 3
89 92 1
89 93 3
89 94 1
89 95 1
89 96 1
89 97 4
89 98 5
89 99 5
89 100 4
90 91 2
90 92 3
90 93 4
90 94 3
90 95 4
90 96 5
90 97 4
90 98 1
90 99 4
90 100 3
91 92 1
91 93 4
91 94 3
91 95 1
91 96 3
91 97 5
91 98 2
91 99 1
91 100 4
92 93 1
92 94 2
92 95 3
92 96 5
92 97 5
92 98 2
92 99 4
92 100 3
93 94 3
93 95 3
93 96 1
93 97 3
93 98 3
93 99 1
93 100 2
94 95 2
94 96 5
94 97 5
94 98 4
94 99 5
94 100 5
95 96 2
95 97 4
95 98 1
95 99 1
95 100 1
96 97 2
96 98 5
96 99 4
96 100 2
97 98 5
97 99 1
97 100 4
98 99 1
98 100 1
99 100 4
